DIMENSION: 120
33
52
100
58
79
68
91
13
47
71
1
59
15
31
66
117
19
18
85
22
107
25
108
43
65
69
113
20
46
50
98
17
118
49
42
41
56
7
38
72
40
105
74
87
44
75
14
86
81
94
78
45
28
92
120
32
30
29
76
61
16
60
24
111
96
90
54
8
70
116
34
26
4
119
103
9
23
11
51
115
2
93
109
21
88
12
97
95
77
64
53
82
3
80
27
5
63
73
57
83
67
37
62
99
104
106
114
101
102
48
110
112
89
55
6
36
84
35
10
